unknown
(model
; cardinality of BoundSet is 1
(declare-sort BoundSet 0)
; rep: @uc_BoundSet_0
(declare-sort UnboundSet 0)
(define-fun IsOpenMinded ((BOUND_VARIABLE_359 BoundSet)) Bool true)
(define-fun IsGood ((BOUND_VARIABLE_359 BoundSet)) Bool false)
(define-fun IsVotes ((BOUND_VARIABLE_359 BoundSet)) Bool false)
(define-fun IsEducationalOpportunities ((BOUND_VARIABLE_359 BoundSet)) Bool false)
)
